% seed = 0

mint = 29;
% maxt = 130;

nActs = 62;
dur = [0,3,2,2,1,2,3,3,1,5,3,2,3,2,3,3,1,1,1,1,1,2,1,2,1,1,1,1,3,1,1,1,2,5,2,3,1,1,5,3,1,2,3,2,2,3,3,2,1,1,2,1,5,2,2,2,4,2,4,2,4,0];

nSkills = 9;
sreq = [| 0,0,0,0,0,0,0,0,0,
	| 0,0,0,0,1,1,0,1,0,
	| 0,0,0,1,0,0,1,1,0,
	| 0,0,0,0,0,0,0,2,0,
	| 0,0,0,0,0,1,0,1,0,
	| 0,0,0,1,0,1,0,1,0,
	| 0,0,1,0,1,0,0,0,0,
	| 1,0,0,0,0,0,0,0,0,
	| 0,0,0,0,1,0,0,1,1,
	| 0,0,0,0,1,0,0,0,0,
	| 0,1,0,0,1,0,0,0,0,
	| 0,0,0,0,0,1,0,0,0,
	| 0,0,0,0,2,0,0,1,0,
	| 1,0,0,0,1,0,0,1,0,
	| 0,0,0,0,0,1,0,2,0,
	| 0,0,0,0,1,0,0,0,0,
	| 0,1,0,1,0,0,0,1,0,
	| 0,0,0,0,0,1,0,0,0,
	| 0,0,0,0,0,0,0,2,0,
	| 1,1,0,0,0,0,0,1,0,
	| 0,0,0,0,0,0,1,1,0,
	| 0,0,0,0,1,0,0,2,0,
	| 0,0,0,0,0,1,0,2,0,
	| 0,0,0,0,2,0,0,1,0,
	| 0,0,0,0,0,0,1,1,0,
	| 0,0,0,0,0,0,1,0,0,
	| 0,0,0,0,0,1,0,1,0,
	| 0,0,0,1,0,0,0,2,0,
	| 0,0,0,0,0,0,0,1,0,
	| 0,1,0,0,0,1,0,1,0,
	| 0,0,0,1,0,0,1,0,0,
	| 0,1,0,0,2,0,0,0,0,
	| 1,1,0,0,0,1,0,0,0,
	| 1,0,0,0,1,0,0,1,0,
	| 0,0,0,0,0,0,0,1,0,
	| 0,0,0,0,1,0,0,0,0,
	| 0,0,1,0,0,0,0,1,0,
	| 0,0,0,0,2,0,0,1,0,
	| 0,0,0,0,2,0,1,0,0,
	| 0,0,0,0,0,0,0,1,0,
	| 0,0,0,0,0,0,0,2,0,
	| 0,0,1,0,0,0,0,2,0,
	| 1,0,1,0,1,0,0,0,0,
	| 0,0,0,0,0,1,0,1,0,
	| 0,0,0,0,1,0,0,2,0,
	| 0,0,0,0,0,1,0,0,0,
	| 1,0,0,0,0,0,0,2,0,
	| 0,0,0,0,0,0,1,1,0,
	| 0,0,2,0,0,0,0,0,0,
	| 0,0,0,0,1,1,0,1,0,
	| 0,0,0,0,0,2,0,0,0,
	| 0,0,0,1,0,0,0,1,0,
	| 0,0,0,0,1,0,0,1,0,
	| 0,0,0,0,0,1,0,0,0,
	| 0,0,0,0,0,1,0,0,0,
	| 0,0,0,0,0,0,0,1,0,
	| 0,0,0,0,0,1,0,1,0,
	| 0,0,0,0,1,1,0,0,0,
	| 0,0,0,0,0,1,0,1,0,
	| 0,0,0,0,0,0,0,1,0,
	| 0,0,0,0,1,0,0,2,0,
	| 0,0,0,0,0,0,0,0,0, |];

% SumOfsreq = 130;

nResources = 9;
mastery = [| false,false,false,false,false,false,false,true,true,
	| false,false,false,true,true,true,false,false,false,
	| false,false,false,false,false,false,false,true,true,
	| false,true,true,false,true,true,false,false,true,
	| false,false,true,true,true,true,false,false,false,
	| true,true,true,false,false,true,true,true,true,
	| false,false,false,false,true,true,false,false,true,
	| false,false,false,false,false,false,true,true,true,
	| false,true,true,false,false,false,false,false,false, |];

nPrecs = 112;
pred = [1,1,1,2,2,2,3,3,3,4,4,4,5,5,5,6,6,6,7,8,8,9,9,9,10,10,10,11,12,12,12,13,13,13,14,14,14,15,16,16,16,17,17,17,18,19,20,20,20,21,22,22,23,24,24,25,26,26,26,27,28,28,28,29,29,30,30,30,31,31,32,33,34,34,34,35,36,37,37,38,38,39,40,40,41,42,43,43,43,44,45,46,46,46,47,48,49,49,50,51,52,52,52,53,54,55,56,57,58,59,60,61];
succ = [2,3,4,5,6,7,11,53,23,34,27,52,25,10,21,9,38,15,8,12,14,17,53,13,19,45,27,16,49,29,24,44,61,48,18,23,16,22,41,20,31,34,39,24,54,39,28,29,46,36,33,23,32,41,51,26,34,43,30,48,42,38,47,35,40,57,37,38,50,58,42,36,44,54,56,60,42,50,40,51,40,46,45,56,48,52,49,44,46,51,59,52,55,47,60,50,58,53,55,55,58,59,54,56,57,59,60,61,61,62,62,62];

nUnrels = 1088;
unpred = [2,2,2,3,3,3,3,3,3,3,3,3,3,3,3,3,3,3,3,3,3,3,3,3,3,3,3,3,3,3,3,3,4,4,4,4,4,4,4,4,4,4,4,4,4,4,4,4,4,4,4,4,4,4,4,4,4,4,4,4,4,4,4,4,4,4,4,4,4,4,4,4,4,4,5,5,5,5,5,5,5,5,5,5,5,5,5,5,5,5,5,5,5,5,5,5,5,6,6,6,6,6,6,6,6,6,6,6,6,6,6,6,6,6,6,6,6,6,6,7,7,7,7,7,7,7,7,7,7,7,7,7,7,7,7,7,7,7,7,8,8,8,8,8,8,8,8,8,8,8,8,8,8,8,8,8,8,8,8,9,9,9,9,9,9,9,9,9,9,9,9,9,9,9,9,9,9,9,9,9,9,9,9,9,9,9,9,9,9,10,10,10,10,10,10,10,10,10,10,10,10,10,10,10,10,10,10,10,10,10,10,10,10,10,10,10,10,10,10,10,10,10,10,10,11,11,11,11,11,11,11,11,11,11,11,11,11,11,11,11,11,11,11,11,11,11,11,11,11,12,12,12,12,12,12,12,12,12,12,12,12,12,12,12,12,12,12,12,12,12,12,12,12,12,12,12,12,12,12,12,12,13,13,13,13,13,13,13,13,13,13,13,13,13,13,13,13,13,13,13,13,13,13,13,13,13,13,13,13,13,13,13,13,13,13,13,13,13,13,13,13,13,14,14,14,14,14,14,14,14,14,14,14,14,14,14,14,14,14,14,14,15,15,15,15,15,15,15,15,15,15,15,15,15,15,15,15,15,15,15,15,15,15,15,15,15,15,15,15,15,15,15,15,15,15,16,16,16,16,16,16,16,16,16,16,16,16,16,16,16,16,16,16,16,16,16,17,17,17,17,17,17,17,17,17,17,17,17,17,17,17,17,17,17,17,17,17,17,17,17,17,18,18,18,18,18,18,18,18,18,18,18,18,18,18,18,18,18,18,18,18,18,18,18,18,18,18,18,18,18,18,18,18,18,18,18,18,18,18,18,18,19,19,19,19,19,19,19,19,19,19,19,19,19,19,19,19,19,19,19,19,19,19,19,19,19,19,19,19,19,19,19,20,20,20,20,20,20,20,20,20,20,20,20,20,20,20,20,20,20,20,20,20,20,21,21,21,21,21,21,21,21,21,21,21,21,21,21,21,21,21,21,21,21,21,21,21,21,21,21,21,21,21,21,21,21,22,22,22,22,22,22,22,22,22,22,22,22,22,22,22,22,22,22,22,22,22,22,22,22,22,22,22,22,23,23,23,23,23,23,23,23,23,23,23,23,23,23,23,23,23,23,23,23,23,23,23,23,23,23,23,23,23,23,24,24,24,24,24,24,24,24,24,24,24,24,24,24,24,24,24,24,24,24,24,24,24,24,24,24,24,24,24,24,24,25,25,25,25,25,25,25,25,25,25,25,25,26,26,26,26,26,26,26,26,26,26,26,26,27,27,27,27,27,27,27,27,27,27,27,27,27,27,27,27,27,27,27,27,27,27,27,27,27,27,27,27,27,27,28,28,28,28,28,28,28,28,28,28,28,28,28,28,28,28,28,28,29,29,29,29,29,29,29,29,29,29,29,29,29,29,29,29,29,29,29,29,29,29,29,29,29,29,30,30,30,30,30,30,30,30,30,30,30,30,30,30,30,30,30,30,30,31,31,31,31,31,31,31,31,31,31,31,31,31,31,31,31,31,31,31,31,31,31,31,31,31,32,32,32,32,32,32,32,32,32,32,32,32,32,32,32,32,32,32,32,32,32,32,33,33,33,33,33,33,33,33,33,33,33,33,33,33,33,33,33,33,33,33,34,34,34,34,34,34,34,34,34,34,34,34,34,34,34,34,34,34,35,35,35,35,35,35,35,35,35,35,35,35,35,35,35,35,35,35,35,35,35,35,35,35,35,36,36,36,36,36,36,36,36,36,36,36,36,36,36,36,36,36,36,37,37,37,37,37,37,37,37,37,37,37,37,37,37,37,37,37,38,38,38,38,38,38,38,38,38,38,38,38,38,38,38,38,39,39,39,39,39,39,39,39,39,39,39,39,40,40,40,40,40,40,40,40,40,40,40,40,40,40,40,40,40,41,41,41,41,41,41,41,41,41,41,41,41,41,41,41,41,42,42,42,42,42,42,42,42,42,42,42,42,42,43,43,43,44,44,44,44,44,44,44,44,44,44,44,44,44,44,45,45,45,45,45,45,45,45,45,45,45,45,45,45,45,46,46,46,46,46,46,47,47,47,47,47,47,47,47,47,47,47,47,47,48,48,48,48,48,48,48,48,48,48,49,49,49,49,49,49,49,50,50,50,50,50,50,50,50,50,51,51,51,51,51,51,51,51,52,52,52,52,53,53,53,53,53,53,54,54,54,54,54,55,55,55,55,55,56,56,56,56,57,57,57,58,58,59,59,60];
unsucc = [3,4,11,4,5,6,7,8,9,10,12,13,14,15,17,18,19,21,22,24,25,26,27,30,33,34,36,37,39,43,44,49,5,6,7,8,9,10,11,12,13,14,15,16,17,18,19,20,21,22,23,24,25,26,28,29,30,31,32,33,35,36,37,38,39,40,41,42,43,45,46,47,49,53,6,7,8,9,11,12,13,14,15,16,17,18,20,22,23,24,28,29,31,32,33,35,41,7,8,10,11,12,14,16,18,19,20,21,25,26,27,28,29,30,31,35,37,43,49,9,10,11,13,15,17,19,21,22,25,26,27,30,33,34,36,37,39,43,44,9,10,11,13,15,17,19,21,22,25,26,27,30,33,34,36,37,39,43,44,10,11,12,14,15,16,18,19,20,21,22,23,25,26,27,28,29,30,31,32,33,35,36,37,38,40,42,43,45,49,11,12,13,14,15,16,17,18,20,21,22,23,24,25,26,28,29,30,31,32,33,34,35,36,37,38,40,41,42,43,44,49,51,53,56,12,13,14,15,17,18,19,21,22,23,24,25,26,27,30,32,33,34,36,37,39,43,44,49,53,13,14,15,16,17,18,19,20,21,22,23,25,26,27,28,30,31,32,33,34,36,37,38,39,42,43,44,46,47,52,54,57,14,15,16,17,18,19,20,21,22,23,24,25,26,27,28,29,30,31,32,33,34,35,36,37,38,39,40,41,42,43,45,46,47,49,52,53,54,56,57,58,60,15,17,19,21,22,24,25,26,27,30,33,34,36,37,39,43,44,49,53,16,17,18,19,20,21,24,25,26,27,28,29,30,31,34,35,37,38,39,40,41,43,44,45,46,47,48,49,50,51,53,55,56,60,17,18,19,21,22,23,24,25,26,27,30,32,33,34,36,37,39,43,44,49,53,18,19,20,21,22,23,25,26,27,28,29,30,31,32,33,35,36,37,38,40,42,43,45,49,53,19,20,21,22,23,24,25,26,27,28,29,30,31,32,33,34,35,36,37,38,39,40,41,42,43,44,45,46,47,48,49,50,51,52,53,55,56,58,59,60,20,21,22,23,24,25,26,27,28,29,30,31,32,33,34,35,36,37,38,40,41,42,43,44,45,48,49,50,51,53,56,21,22,23,24,25,26,27,30,31,32,33,34,36,37,39,41,43,44,48,49,50,53,22,23,24,25,26,27,28,29,30,31,32,33,34,35,37,38,39,40,41,43,44,45,46,47,48,49,50,51,53,55,56,60,24,25,26,27,28,29,30,31,34,35,37,38,39,40,41,43,44,45,46,47,48,49,50,51,53,55,56,60,24,25,26,27,28,29,30,31,33,34,35,36,37,38,39,40,41,43,44,45,46,47,48,49,50,51,53,55,56,60,25,26,27,28,29,30,31,32,33,34,35,36,37,38,39,40,42,43,44,45,46,47,49,52,53,54,56,57,58,60,61,27,28,29,31,32,33,35,36,39,41,42,48,27,28,29,31,32,33,35,36,39,41,42,48,28,29,30,31,32,33,34,35,36,37,38,39,40,41,42,43,44,45,46,47,49,51,52,53,54,56,57,58,60,61,29,30,31,32,33,34,35,36,37,39,41,43,44,46,48,49,50,53,30,31,32,33,34,36,37,38,39,41,42,43,44,46,47,48,49,50,51,52,53,54,55,57,58,61,31,32,33,34,35,36,39,41,42,43,44,46,47,48,49,52,53,54,58,32,33,34,35,36,37,38,39,40,41,42,43,44,45,46,47,48,49,51,52,53,54,56,57,60,33,34,35,36,37,38,39,40,41,43,44,45,46,47,48,49,50,51,53,55,56,60,34,35,37,38,39,40,41,43,44,45,46,47,48,49,50,51,53,55,56,60,35,36,37,38,39,40,41,42,43,45,46,47,48,49,50,52,53,58,36,37,38,39,40,41,42,43,44,45,46,47,48,49,50,51,52,53,54,55,56,57,58,59,61,37,38,39,40,41,43,44,45,46,47,48,49,50,51,53,55,56,60,38,39,41,42,43,44,46,47,48,49,51,52,53,54,57,58,61,39,41,42,43,44,46,47,48,49,50,52,53,54,57,58,61,40,41,42,43,44,45,48,49,50,51,53,56,41,42,43,44,46,47,48,49,50,51,52,53,54,55,57,58,61,42,43,44,45,46,47,49,51,52,53,54,56,57,58,60,61,43,44,45,46,47,48,49,50,51,53,55,56,60,45,48,50,45,46,47,48,49,50,52,53,54,56,57,58,60,61,46,47,48,49,50,51,52,53,54,55,56,57,58,60,61,48,49,50,51,53,56,48,49,50,51,52,53,54,55,56,57,58,59,61,49,51,52,53,54,56,57,58,60,61,50,51,52,54,55,57,59,51,52,53,54,56,57,58,60,61,52,53,54,56,57,58,60,61,53,55,56,60,54,55,57,58,59,61,55,56,58,59,60,56,57,58,60,61,57,58,59,61,58,59,60,59,60,60,61,61];

USEFUL_RES = [{},
	{1,2,3,4,5,6,7,8},
	{1,2,3,5,6,8},
	{1,3,6,8},
	{1,2,3,4,5,6,7,8},
	{1,2,3,4,5,6,7,8},
	{2,4,5,6,7,9},
	{6},
	{1,2,3,4,5,6,7,8},
	{2,4,5,7},
	{2,4,5,6,7,9},
	{2,4,5,6,7},
	{1,2,3,4,5,6,7,8},
	{1,2,3,4,5,6,7,8},
	{1,2,3,4,5,6,7,8},
	{2,4,5,7},
	{1,2,3,4,5,6,8,9},
	{2,4,5,6,7},
	{1,3,6,8},
	{1,3,4,6,8,9},
	{1,3,6,8},
	{1,2,3,4,5,6,7,8},
	{1,2,3,4,5,6,7,8},
	{1,2,3,4,5,6,7,8},
	{1,3,6,8},
	{6,8},
	{1,2,3,4,5,6,7,8},
	{1,2,3,5,6,8},
	{1,3,6,8},
	{1,2,3,4,5,6,7,8,9},
	{2,5,6,8},
	{2,4,5,6,7,9},
	{2,4,5,6,7,9},
	{1,2,3,4,5,6,7,8},
	{1,3,6,8},
	{2,4,5,7},
	{1,3,4,5,6,8,9},
	{1,2,3,4,5,6,7,8},
	{2,4,5,6,7,8},
	{1,3,6,8},
	{1,3,6,8},
	{1,3,4,5,6,8,9},
	{2,4,5,6,7,9},
	{1,2,3,4,5,6,7,8},
	{1,2,3,4,5,6,7,8},
	{2,4,5,6,7},
	{1,3,6,8},
	{1,3,6,8},
	{4,5,6,9},
	{1,2,3,4,5,6,7,8},
	{2,4,5,6,7},
	{1,2,3,5,6,8},
	{1,2,3,4,5,6,7,8},
	{2,4,5,6,7},
	{2,4,5,6,7},
	{1,3,6,8},
	{1,2,3,4,5,6,7,8},
	{2,4,5,6,7},
	{1,2,3,4,5,6,7,8},
	{1,3,6,8},
	{1,2,3,4,5,6,7,8},
	{}];

POTENTIAL_ACT = [{2,3,4,5,6,9,13,14,15,17,19,20,21,22,23,24,25,27,28,29,30,34,35,37,38,40,41,42,44,45,47,48,50,52,53,56,57,59,60,61},
	{2,3,5,6,7,9,10,11,12,13,14,15,16,17,18,22,23,24,27,28,30,31,32,33,34,36,38,39,43,44,45,46,50,51,52,53,54,55,57,58,59,61},
	{2,3,4,5,6,9,13,14,15,17,19,20,21,22,23,24,25,27,28,29,30,34,35,37,38,40,41,42,44,45,47,48,50,52,53,56,57,59,60,61},
	{2,5,6,7,9,10,11,12,13,14,15,16,17,18,20,22,23,24,27,30,32,33,34,36,37,38,39,42,43,44,45,46,49,50,51,53,54,55,57,58,59,61},
	{2,3,5,6,7,9,10,11,12,13,14,15,16,17,18,22,23,24,27,28,30,31,32,33,34,36,37,38,39,42,43,44,45,46,49,50,51,52,53,54,55,57,58,59,61},
	{2,3,4,5,6,7,8,9,11,12,13,14,15,17,18,19,20,21,22,23,24,25,26,27,28,29,30,31,32,33,34,35,37,38,39,40,41,42,43,44,45,46,47,48,49,50,51,52,53,54,55,56,57,58,59,60,61},
	{2,5,6,7,9,10,11,12,13,14,15,16,18,22,23,24,27,30,32,33,34,36,38,39,43,44,45,46,50,51,53,54,55,57,58,59,61},
	{2,3,4,5,6,9,13,14,15,17,19,20,21,22,23,24,25,26,27,28,29,30,31,34,35,37,38,39,40,41,42,44,45,47,48,50,52,53,56,57,59,60,61},
	{7,11,17,20,30,32,33,37,42,43,49}];
